DIMENSION: 30
EDGE_WEIGHT_TYPE: EXPLICIT
EDGE_WEIGHT_FORMAT: FULL_MATRIX
EDGE_WEIGHT_SECTION:
32767 32767 32767 32767 32767 58 40 32767 86 31 46 32767 32767 32767 32767 32767 32767 96 32767 32767 32767 32767 32767 32767 32767 42 32767 32767 32767 32767 
32767 32767 61 32767 44 32767 26 32767 32767 32767 32767 43 32767 12 32767 32767 32767 6 73 32767 67 56 32767 32767 32767 32767 12 32767 32767 32767 
32767 61 32767 32767 30 32767 32767 32767 32767 31 96 32767 71 32767 95 32767 32767 32767 32767 55 93 2 32767 32767 76 32767 32767 32767 56 75 
32767 32767 32767 32767 7 32767 32767 28 32767 32767 32767 29 11 32767 32767 66 32767 67 88 32767 32767 32767 32767 32767 32767 32767 32767 32767 32767 32767 
32767 44 30 7 32767 88 32767 32767 12 94 32767 32767 23 32767 88 32767 7 32767 71 32767 32767 32767 32767 100 32767 6 32767 32767 96 88 
58 32767 32767 32767 88 32767 32767 32767 32767 96 32767 32767 32767 32767 28 32767 32767 32767 32767 32767 32767 32767 56 32767 71 32767 32767 69 32767 29 
40 26 32767 32767 32767 32767 32767 14 32767 32767 18 83 32767 32767 32767 32767 32767 32767 32767 32767 32767 9 73 32767 44 7 14 32767 32767 32767 
32767 32767 32767 28 32767 32767 14 32767 32767 11 42 52 57 17 32767 27 82 38 32767 10 67 32767 32767 12 32767 32767 32767 32767 32767 4 
86 32767 32767 32767 12 32767 32767 32767 32767 32767 32767 32767 74 32767 32767 32767 91 32767 32767 41 32767 32767 32767 32767 32767 32767 32767 32767 32767 32767 
31 32767 31 32767 94 96 32767 11 32767 32767 71 83 32767 32767 23 32767 32767 32767 65 32767 32767 32767 15 32767 55 32767 32767 32767 83 76 
46 32767 96 32767 32767 32767 18 42 32767 71 32767 32767 32767 18 95 77 32767 99 32767 32767 32767 32767 87 49 32767 50 32767 68 32767 32767 
32767 43 32767 29 32767 32767 83 52 32767 83 32767 32767 47 40 32767 62 32767 56 32767 32767 32767 32767 32767 95 32767 32767 32767 32767 22 1 
32767 32767 71 11 23 32767 32767 57 74 32767 32767 47 32767 32767 32767 32767 32767 32767 32767 32767 53 32767 32767 32767 31 56 36 32767 32767 20 
32767 12 32767 32767 32767 32767 32767 17 32767 32767 18 40 32767 32767 32767 32767 32767 32767 46 32767 32767 32767 85 55 32767 32767 19 32767 32767 32767 
32767 32767 95 32767 88 28 32767 32767 32767 23 95 32767 32767 32767 32767 32767 40 32767 32767 80 32767 35 32767 32767 32767 32767 6 32767 32767 32767 
32767 32767 32767 66 32767 32767 32767 27 32767 32767 77 62 32767 32767 32767 32767 13 32767 32767 74 74 68 32767 32767 64 32767 32767 32767 17 32767 
32767 32767 32767 32767 7 32767 32767 82 91 32767 32767 32767 32767 32767 40 13 32767 51 32767 32767 91 32767 6 32767 32767 9 32767 32767 35 32767 
96 6 32767 67 32767 32767 32767 38 32767 32767 99 56 32767 32767 32767 32767 51 32767 32767 94 32767 87 32767 23 32767 39 32767 32767 32767 56 
32767 73 32767 88 71 32767 32767 32767 32767 65 32767 32767 32767 46 32767 32767 32767 32767 32767 17 95 50 32767 59 32767 32767 32767 32767 38 32767 
32767 32767 55 32767 32767 32767 32767 10 41 32767 32767 32767 32767 32767 80 74 32767 94 17 32767 32767 32767 3 32767 78 32767 32767 32767 32767 32767 
32767 67 93 32767 32767 32767 32767 67 32767 32767 32767 32767 53 32767 32767 74 91 32767 95 32767 32767 32767 2 32767 32767 32767 32767 32767 77 32767 
32767 56 2 32767 32767 32767 9 32767 32767 32767 32767 32767 32767 32767 35 68 32767 87 50 32767 32767 32767 32767 32767 3 29 17 51 48 20 
32767 32767 32767 32767 32767 56 73 32767 32767 15 87 32767 32767 85 32767 32767 6 32767 32767 3 2 32767 32767 32767 32767 32767 87 32767 32767 32767 
32767 32767 32767 32767 100 32767 32767 12 32767 32767 49 95 32767 55 32767 32767 32767 23 59 32767 32767 32767 32767 32767 32767 32767 15 24 32767 32767 
32767 32767 76 32767 32767 71 44 32767 32767 55 32767 32767 31 32767 32767 64 32767 32767 32767 78 32767 3 32767 32767 32767 40 93 32767 32767 32767 
42 32767 32767 32767 6 32767 7 32767 32767 32767 50 32767 56 32767 32767 32767 9 39 32767 32767 32767 29 32767 32767 40 32767 32767 32767 32767 18 
32767 12 32767 32767 32767 32767 14 32767 32767 32767 32767 32767 36 19 6 32767 32767 32767 32767 32767 32767 17 87 15 93 32767 32767 32 89 51 
32767 32767 32767 32767 32767 69 32767 32767 32767 32767 68 32767 32767 32767 32767 32767 32767 32767 32767 32767 32767 51 32767 24 32767 32767 32 32767 32767 32767 
32767 32767 56 32767 96 32767 32767 32767 32767 83 32767 22 32767 32767 32767 17 35 32767 38 32767 77 48 32767 32767 32767 32767 89 32767 32767 32767 
32767 32767 75 32767 88 29 32767 4 32767 76 32767 1 20 32767 32767 32767 32767 56 32767 32767 32767 20 32767 32767 32767 18 51 32767 32767 32767 
EOF